c Nemesis formula in 6CNF in accordance with DIMACS CNF format:
c    Filename: MCNC/c432/c432.tdl
c    Formula number 43
c    1292 variables (range: 2 - 1293)
c    2783 clauses
c
c p cnf 1293 2783
p cnf 865 2783
396	0
-835	0
864	0
396	0
-397	0
395	0
388	-389	0
-388	389	0
395	397	0
-395	-397	0
-393	-409	0
-659	-409	0
-573	-409	0
395	388	0
-395	-388	0
835	-397	0
-835	397	0
835	-389	0
-835	389	0
397	-389	0
-397	389	0
-836	38	0
-39	-838	0
37	-838	0
39	-839	0
-37	-839	0
-839	837	0
-838	837	0
554	37	0
-554	-37	0
-555	38	0
556	39	0
-556	-39	0
174	-554	0
-174	554	0
174	-557	0
-174	557	0
174	-570	0
-174	570	0
175	-555	0
175	-558	0
175	-571	0
176	-556	0
-176	556	0
176	-559	0
-176	559	0
176	-572	0
-176	572	0
212	174	0
-212	-174	0
-213	175	0
214	176	0
-214	-176	0
78	-197	0
-78	197	0
78	-200	0
-78	200	0
78	-212	0
-78	212	0
78	-224	0
-78	224	0
78	-231	0
-78	231	0
78	-261	0
-78	261	0
78	-265	0
-78	265	0
78	-270	0
-78	270	0
78	-281	0
-78	281	0
78	-381	0
-78	381	0
78	-438	0
-78	438	0
78	-466	0
-78	466	0
78	-513	0
-78	513	0
78	-525	0
-78	525	0
78	-613	0
-78	613	0
78	-639	0
-78	639	0
78	-661	0
-78	661	0
78	-688	0
-78	688	0
78	-694	0
-78	694	0
78	-719	0
-78	719	0
78	-759	0
-78	759	0
79	-198	0
79	-201	0
79	-213	0
79	-225	0
79	-232	0
79	-262	0
79	-266	0
79	-271	0
79	-282	0
79	-382	0
79	-439	0
79	-467	0
79	-514	0
79	-526	0
79	-614	0
79	-640	0
79	-662	0
79	-689	0
79	-695	0
79	-720	0
79	-760	0
80	-199	0
-80	199	0
80	-202	0
-80	202	0
80	-214	0
-80	214	0
80	-226	0
-80	226	0
80	-233	0
-80	233	0
80	-263	0
-80	263	0
80	-267	0
-80	267	0
80	-272	0
-80	272	0
80	-283	0
-80	283	0
80	-383	0
-80	383	0
80	-440	0
-80	440	0
80	-468	0
-80	468	0
80	-515	0
-80	515	0
80	-527	0
-80	527	0
80	-615	0
-80	615	0
80	-641	0
-80	641	0
80	-663	0
-80	663	0
80	-690	0
-80	690	0
80	-696	0
-80	696	0
80	-721	0
-80	721	0
80	-761	0
-80	761	0
99	78	0
552	78	0
388	78	0
395	78	0
99	80	0
552	80	0
388	80	0
397	80	0
409	395	0
-409	-395	0
230	-408	0
-230	408	0
230	-409	0
-230	409	0
-421	-230	0
-414	-230	0
-418	-230	0
401	-415	0
-401	415	0
401	-418	0
-401	418	0
401	-427	0
-401	427	0
401	-432	0
-401	432	0
34	401	0
-34	-401	0
12	-411	0
-12	411	0
12	-414	0
-12	414	0
410	-421	0
-410	421	0
410	-422	0
-410	422	0
-564	-825	0
420	-825	0
564	-826	0
-420	-826	0
-826	410	0
-825	410	0
57	-180	0
-57	180	0
57	-181	0
-57	181	0
57	-184	0
-57	184	0
57	-221	0
-57	221	0
57	-246	0
-57	246	0
57	-378	0
-57	378	0
57	-420	0
-57	420	0
57	-459	0
-57	459	0
57	-506	0
-57	506	0
57	-544	0
-57	544	0
57	-588	0
-57	588	0
57	-610	0
-57	610	0
57	-636	0
-57	636	0
57	-652	0
-57	652	0
57	-691	0
-57	691	0
57	-702	0
-57	702	0
57	-712	0
-57	712	0
57	-772	0
-57	772	0
57	-805	0
-57	805	0
583	57	0
560	57	0
58	57	0
575	57	0
700	575	0
-700	-575	0
576	-700	0
-576	700	0
576	-701	0
-576	701	0
-742	-576	0
-743	-576	0
578	-581	0
-578	581	0
578	-582	0
-578	582	0
578	-604	0
-578	604	0
578	-743	0
-578	743	0
26	578	0
-26	-578	0
7	-739	0
-7	739	0
7	-742	0
-7	742	0
-244	-58	0
-61	-58	0
56	-60	0
-56	60	0
56	-61	0
-56	61	0
-462	-56	0
-448	-56	0
433	-448	0
-433	448	0
433	-449	0
-433	449	0
451	433	0
-451	-433	0
32	-451	0
-32	451	0
32	-452	0
-32	452	0
32	-483	0
-32	483	0
5	-462	0
-5	462	0
5	-463	0
-5	463	0
59	-244	0
-59	244	0
59	-245	0
-59	245	0
-715	-59	0
-708	-59	0
703	-706	0
-703	706	0
703	-707	0
-703	707	0
703	-708	0
-703	708	0
703	-736	0
-703	736	0
9	703	0
-9	-703	0
21	-715	0
-21	715	0
21	-716	0
-21	716	0
-563	-560	0
-561	-560	0
-565	-560	0
419	-564	0
-419	564	0
419	-565	0
-419	565	0
-431	-419	0
-432	-419	0
25	-428	0
-25	428	0
25	-431	0
-25	431	0
664	561	0
653	561	0
665	561	0
803	665	0
-803	-665	0
784	-803	0
-784	803	0
784	-804	0
-784	804	0
-801	-784	0
-802	-784	0
785	-794	0
-785	794	0
785	-797	0
-785	797	0
785	-802	0
-785	802	0
785	-812	0
-785	812	0
19	785	0
-19	-785	0
17	-798	0
-17	798	0
17	-801	0
-17	801	0
655	653	0
-655	-653	0
651	-654	0
-651	654	0
651	-655	0
-651	655	0
-782	-651	0
-783	-651	0
498	-775	0
-498	775	0
498	-776	0
-498	776	0
498	-783	0
-498	783	0
768	498	0
-768	-498	0
35	-767	0
-35	767	0
35	-768	0
-35	768	0
30	-779	0
-30	779	0
30	-782	0
-30	782	0
667	664	0
-667	-664	0
183	-666	0
-183	666	0
183	-667	0
-183	667	0
-649	-183	0
-650	-183	0
186	-195	0
-186	195	0
186	-196	0
-186	196	0
186	-366	0
-186	366	0
186	-650	0
-186	650	0
28	186	0
-28	-186	0
4	-646	0
-4	646	0
4	-649	0
-4	649	0
500	-562	0
-500	562	0
500	-563	0
-500	563	0
-509	-500	0
-502	-500	0
495	-501	0
-495	501	0
495	-502	0
-495	502	0
532	495	0
-532	-495	0
6	-532	0
-6	532	0
6	-533	0
-6	533	0
6	-543	0
-6	543	0
10	-509	0
-10	509	0
10	-510	0
-10	510	0
586	583	0
-586	-583	0
584	-586	0
-584	586	0
584	-587	0
-584	587	0
-747	-584	0
-748	-584	0
589	-592	0
-589	592	0
589	-593	0
-589	593	0
589	-630	0
-589	630	0
589	-748	0
-589	748	0
27	589	0
-27	-589	0
11	-744	0
-11	744	0
11	-747	0
-11	747	0
-393	-388	0
-659	-388	0
-573	-388	0
391	-573	0
-391	573	0
391	-574	0
-391	574	0
391	-687	0
-391	687	0
-806	-391	0
-793	-391	0
-797	-391	0
18	-790	0
-18	790	0
18	-793	0
-18	793	0
789	-806	0
-789	806	0
789	-807	0
-789	807	0
-804	-813	0
805	-813	0
804	-814	0
-805	-814	0
-814	789	0
-813	789	0
390	-659	0
-390	659	0
390	-660	0
-390	660	0
-674	-390	0
-755	-390	0
-775	-390	0
22	-755	0
-22	755	0
22	-756	0
-22	756	0
497	-674	0
-497	674	0
497	-675	0
-497	675	0
-654	-819	0
652	-819	0
654	-820	0
-652	-820	0
-820	497	0
-819	497	0
185	-392	0
-185	392	0
185	-393	0
-185	393	0
-193	-185	0
-384	-185	0
-195	-185	0
23	-384	0
-23	384	0
23	-385	0
-23	385	0
182	-193	0
-182	193	0
182	-194	0
-182	194	0
-666	-831	0
184	-831	0
666	-832	0
-184	-832	0
-832	182	0
-831	182	0
394	-552	0
-394	552	0
394	-553	0
-394	553	0
523	394	0
-523	-394	0
496	-523	0
-496	523	0
496	-524	0
-496	524	0
-548	-496	0
-516	-496	0
-501	-496	0
33	-516	0
-33	516	0
33	-517	0
-33	517	0
499	-548	0
-499	548	0
499	-549	0
-499	549	0
-562	-823	0
544	-823	0
562	-824	0
-544	-824	0
-824	499	0
-823	499	0
-104	-99	0
-268	-99	0
-259	-99	0
-279	-99	0
102	-279	0
-102	279	0
102	-280	0
-102	280	0
102	-437	0
-102	437	0
-447	-102	0
-469	-102	0
-449	-102	0
29	-469	0
-29	469	0
29	-470	0
-29	470	0
55	-444	0
-55	444	0
55	-447	0
-55	447	0
-60	-833	0
180	-833	0
60	-834	0
-180	-834	0
-834	55	0
-833	55	0
101	-259	0
-101	259	0
101	-260	0
-101	260	0
101	-264	0
-101	264	0
-580	-101	0
-616	-101	0
-582	-101	0
31	-616	0
-31	616	0
31	-617	0
-31	617	0
577	-579	0
-577	579	0
577	-580	0
-577	580	0
-701	-815	0
702	-815	0
701	-816	0
-702	-816	0
-816	577	0
-815	577	0
100	-268	0
-100	268	0
100	-269	0
-100	269	0
-704	-100	0
-722	-100	0
-706	-100	0
20	-722	0
-20	722	0
20	-723	0
-20	723	0
243	-704	0
-243	704	0
243	-705	0
-243	705	0
-245	-827	0
246	-827	0
245	-828	0
-246	-828	0
-828	243	0
-827	243	0
77	-103	0
-77	103	0
77	-104	0
-77	104	0
-590	-77	0
-642	-77	0
-592	-77	0
15	-642	0
-15	642	0
15	-643	0
-15	643	0
585	-590	0
-585	590	0
585	-591	0
-585	591	0
-587	-821	0
588	-821	0
587	-822	0
-588	-822	0
-822	585	0
-821	585	0
-42	-845	0
40	-845	0
42	-846	0
-40	-846	0
-846	844	0
-845	844	0
473	40	0
-473	-40	0
-474	41	0
475	42	0
-475	-42	0
209	-473	0
-209	473	0
209	-476	0
-209	476	0
209	-529	0
-209	529	0
210	-474	0
210	-477	0
210	-530	0
211	-475	0
-211	475	0
211	-478	0
-211	478	0
211	-531	0
-211	531	0
492	209	0
-492	-209	0
-493	210	0
494	211	0
-494	-211	0
93	-402	0
-93	402	0
93	-405	0
-93	405	0
93	-492	0
-93	492	0
93	-597	0
-93	597	0
93	-623	0
-93	623	0
93	-729	0
-93	729	0
93	-752	0
-93	752	0
93	-786	0
-93	786	0
94	-403	0
94	-406	0
94	-493	0
94	-598	0
94	-624	0
94	-730	0
94	-753	0
94	-787	0
95	-404	0
-95	404	0
95	-407	0
-95	407	0
95	-494	0
-95	494	0
95	-599	0
-95	599	0
95	-625	0
-95	625	0
95	-731	0
-95	731	0
95	-754	0
-95	754	0
95	-788	0
-95	788	0
68	93	0
96	93	0
81	93	0
-69	94	0
-97	94	0
-82	94	0
70	95	0
98	95	0
83	95	0
-90	-81	0
-85	82	0
-91	82	0
-85	87	0
-92	-83	0
-444	-90	0
-441	-90	0
-435	91	0
-274	91	0
-442	-444	0
-445	-441	0
-274	-441	0
-435	-441	0
-274	-444	0
-435	-444	0
-444	-92	0
-441	-92	0
479	441	0
452	441	0
450	-479	0
-450	479	0
450	-480	0
-450	480	0
14	450	0
-14	-450	0
276	273	0
-276	-273	0
-277	274	0
278	275	0
-278	-275	0
-280	-276	0
-281	-276	0
-282	277	0
-282	-280	0
-280	-278	0
-283	-278	0
437	434	0
438	434	0
-439	435	0
-439	437	0
437	436	0
440	436	0
-705	-87	0
-732	-87	0
-707	-87	0
8	-732	0
-8	732	0
8	-733	0
-8	733	0
-271	85	0
-203	-96	0
-187	-96	0
-206	-96	0
-204	97	0
-188	97	0
-207	97	0
-205	-98	0
-189	-98	0
-208	-98	0
671	206	0
-657	207	0
-672	207	0
-669	-675	0
-676	-668	0
-657	-668	0
-657	-675	0
673	208	0
697	671	0
-567	672	0
-685	672	0
-685	697	0
-567	697	0
697	673	0
-807	-697	0
-811	-697	0
-812	-697	0
3	-808	0
-3	808	0
3	-811	0
-3	811	0
-687	-684	0
-688	-684	0
-689	685	0
-689	-687	0
-687	-686	0
-690	-686	0
-569	-566	0
-570	-566	0
-571	567	0
-571	-569	0
-569	-568	0
-572	-568	0
574	569	0
-574	-569	0
762	668	0
767	668	0
766	762	0
-766	-762	0
1	-763	0
-1	763	0
1	-766	0
-1	766	0
-660	-817	0
661	-817	0
660	-818	0
-661	-818	0
-818	656	0
-817	656	0
-662	657	0
-660	-848	0
663	-848	0
660	-849	0
-663	-849	0
-849	658	0
-848	658	0
-190	-187	0
-194	-187	0
-362	-187	0
-196	-187	0
-191	188	0
-191	-196	0
-191	-362	0
-191	-194	0
-192	-189	0
-194	-189	0
-362	-189	0
-196	-189	0
16	-362	0
-16	362	0
16	-363	0
-16	363	0
-392	-829	0
200	-829	0
392	-830	0
-200	-830	0
-830	190	0
-829	190	0
-201	191	0
-392	-850	0
202	-850	0
392	-851	0
-202	-851	0
-851	192	0
-850	192	0
234	203	0
-234	-203	0
-235	204	0
236	205	0
-236	-205	0
-240	-234	0
-228	235	0
-241	235	0
-228	237	0
-242	-236	0
-549	-240	0
-536	-240	0
-521	241	0
-546	241	0
-537	-549	0
-550	-536	0
-546	-536	0
-521	-536	0
-546	-549	0
-521	-549	0
-549	-242	0
-536	-242	0
542	536	0
543	536	0
528	-539	0
-528	539	0
528	-542	0
-528	542	0
13	528	0
-13	-528	0
553	545	0
557	545	0
-558	546	0
-558	553	0
553	547	0
559	547	0
524	520	0
525	520	0
-526	521	0
-526	524	0
524	522	0
527	522	0
-422	-237	0
-426	-237	0
-427	-237	0
36	-423	0
-36	423	0
36	-426	0
-36	426	0
-232	228	0
-62	-68	0
-72	69	0
-63	69	0
-72	74	0
-64	-70	0
65	62	0
-65	-62	0
-66	63	0
67	64	0
-67	-64	0
253	65	0
-248	66	0
-251	66	0
-251	253	0
-248	253	0
253	67	0
-579	-253	0
-600	-253	0
-581	-253	0
24	-600	0
-24	600	0
24	-601	0
-24	601	0
-264	-250	0
-265	-250	0
-266	251	0
-266	-264	0
-264	-252	0
-267	-252	0
256	247	0
-256	-247	0
-257	248	0
258	249	0
-258	-249	0
260	256	0
261	256	0
-262	257	0
-262	260	0
260	258	0
263	258	0
-591	-74	0
-626	-74	0
-593	-74	0
2	-626	0
-2	626	0
2	-627	0
-2	627	0
-198	72	0
-45	-853	0
43	-853	0
45	-854	0
-43	-854	0
-854	852	0
-853	852	0
296	43	0
144	43	0
126	43	0
132	43	0
-297	44	0
-145	44	0
-127	44	0
-133	44	0
298	45	0
146	45	0
128	45	0
134	45	0
105	-129	0
-105	129	0
105	-132	0
-105	132	0
105	-150	0
-105	150	0
106	-130	0
106	-133	0
106	-151	0
107	-131	0
-107	131	0
107	-134	0
-107	134	0
107	-152	0
-107	152	0
171	105	0
-171	-105	0
-172	106	0
173	107	0
-173	-107	0
156	-168	0
-156	168	0
156	-171	0
-156	171	0
157	-169	0
157	-172	0
158	-170	0
-158	170	0
158	-173	0
-158	173	0
-678	-156	0
-695	157	0
-679	157	0
-695	790	0
-799	691	0
-692	798	0
-680	-158	0
681	678	0
-681	-678	0
-682	679	0
683	680	0
-683	-680	0
-794	-681	0
-787	682	0
-787	808	0
-809	-794	0
-787	-794	0
-794	-683	0
114	-123	0
-114	123	0
114	-126	0
-114	126	0
114	-293	0
-114	293	0
114	-341	0
-114	341	0
115	-124	0
115	-127	0
115	-294	0
115	-342	0
116	-125	0
-116	125	0
116	-128	0
-116	128	0
116	-295	0
-116	295	0
116	-343	0
-116	343	0
338	114	0
-338	-114	0
-339	115	0
340	116	0
-340	-116	0
165	-317	0
-165	317	0
165	-320	0
-165	320	0
165	-338	0
-165	338	0
166	-318	0
166	-321	0
166	-339	0
167	-319	0
-167	319	0
167	-322	0
-167	322	0
167	-340	0
-167	340	0
-630	-165	0
-620	-165	0
-624	166	0
-621	166	0
-621	-630	0
-624	627	0
-628	-630	0
-624	-630	0
-630	-167	0
-622	-167	0
633	620	0
-633	-620	0
-634	621	0
635	622	0
-635	-622	0
-640	634	0
-640	643	0
-745	636	0
-637	744	0
120	-144	0
-120	144	0
120	-147	0
-120	147	0
121	-145	0
121	-148	0
122	-146	0
-122	146	0
122	-149	0
-122	149	0
314	120	0
-314	-120	0
-315	121	0
316	122	0
-316	-122	0
-320	-314	0
-323	-314	0
-321	315	0
-324	315	0
-322	-316	0
-325	-316	0
290	-308	0
-290	308	0
290	-311	0
-290	311	0
290	-323	0
-290	323	0
290	-344	0
-290	344	0
290	-486	0
-290	486	0
291	-309	0
291	-312	0
291	-324	0
291	-345	0
291	-487	0
292	-310	0
-292	310	0
292	-313	0
-292	313	0
292	-325	0
-292	325	0
292	-346	0
-292	346	0
292	-488	0
-292	488	0
607	290	0
594	290	0
-608	291	0
-595	291	0
609	292	0
596	292	0
-604	-594	0
-598	595	0
-598	601	0
-602	-604	0
-598	-604	0
-604	-596	0
-614	608	0
-614	617	0
-740	610	0
-611	739	0
117	-296	0
-117	296	0
117	-299	0
-117	299	0
117	-305	0
-117	305	0
117	-489	0
-117	489	0
118	-297	0
118	-300	0
118	-306	0
118	-490	0
119	-298	0
-119	298	0
119	-301	0
-119	301	0
119	-307	0
-119	307	0
119	-491	0
-119	491	0
453	117	0
-453	-117	0
-454	118	0
455	119	0
-455	-119	0
-709	-453	0
-720	454	0
-710	454	0
-720	723	0
-717	712	0
-713	716	0
-711	-455	0
726	709	0
-726	-709	0
-727	710	0
728	711	0
-728	-711	0
-736	-726	0
-730	727	0
-730	733	0
-734	-736	0
-730	-736	0
-736	-728	0
-51	-856	0
49	-856	0
51	-857	0
-49	-857	0
-857	855	0
-856	855	0
141	49	0
147	49	0
135	49	0
150	49	0
-142	50	0
-148	50	0
-136	50	0
-151	50	0
143	51	0
149	51	0
137	51	0
152	51	0
341	135	0
372	135	0
344	135	0
350	135	0
-342	136	0
-373	136	0
-345	136	0
-351	136	0
343	137	0
374	137	0
346	137	0
352	137	0
329	-347	0
-329	347	0
329	-350	0
-329	350	0
330	-348	0
330	-351	0
331	-349	0
-331	349	0
331	-352	0
-331	352	0
356	329	0
-356	-329	0
-357	330	0
358	331	0
-358	-331	0
302	-353	0
-302	353	0
302	-356	0
-302	356	0
303	-354	0
303	-357	0
304	-355	0
-304	355	0
304	-358	0
-304	358	0
-503	-302	0
-514	303	0
-504	303	0
-514	517	0
-511	506	0
-507	510	0
-505	-304	0
533	503	0
-530	504	0
-530	-539	0
-540	533	0
-530	533	0
533	505	0
215	-372	0
-215	372	0
215	-375	0
-215	375	0
216	-373	0
216	-376	0
217	-374	0
-217	374	0
217	-377	0
-217	377	0
-218	-215	0
-225	216	0
-219	216	0
-225	411	0
-429	221	0
-222	428	0
-220	-217	0
398	218	0
-398	-218	0
-399	219	0
400	220	0
-400	-220	0
-415	-398	0
-406	399	0
-406	423	0
-424	-415	0
-406	-415	0
-415	-400	0
108	-138	0
-108	138	0
108	-141	0
-108	141	0
109	-139	0
109	-142	0
110	-140	0
-110	140	0
110	-143	0
-110	143	0
293	108	0
299	108	0
308	108	0
284	108	0
-294	109	0
-300	109	0
-309	109	0
-285	109	0
295	110	0
301	110	0
310	110	0
286	110	0
332	284	0
-332	-284	0
-333	285	0
334	286	0
-334	-286	0
287	-332	0
-287	332	0
287	-335	0
-287	335	0
288	-333	0
288	-336	0
289	-334	0
-289	334	0
289	-337	0
-289	337	0
483	287	0
456	287	0
-477	288	0
-457	288	0
-457	483	0
-477	-480	0
-481	483	0
-477	483	0
483	289	0
458	289	0
-467	457	0
-467	470	0
-464	459	0
-460	463	0
-48	-859	0
46	-859	0
48	-860	0
-46	-860	0
-860	858	0
-859	858	0
129	46	0
138	46	0
111	46	0
123	46	0
-130	47	0
-139	47	0
-112	47	0
-124	47	0
131	48	0
140	48	0
113	48	0
125	48	0
305	111	0
353	111	0
311	111	0
-306	112	0
-354	112	0
-312	112	0
307	113	0
355	113	0
313	113	0
-54	-862	0
52	-862	0
54	-863	0
-52	-863	0
-863	861	0
-862	861	0
-177	-52	0
-153	-52	0
-178	53	0
-154	53	0
-179	-54	0
-155	-54	0
-168	-153	0
-159	-153	0
-162	-153	0
-317	-153	0
-169	154	0
-160	154	0
-163	154	0
-318	154	0
-170	-155	0
-161	-155	0
-164	-155	0
-319	-155	0
486	162	0
489	162	0
-487	163	0
-490	163	0
488	164	0
491	164	0
335	159	0
326	159	0
347	159	0
-336	160	0
-327	160	0
-348	160	0
337	161	0
328	161	0
349	161	0
-375	-326	0
-370	327	0
-360	327	0
-376	327	0
-377	-328	0
-366	-359	0
-403	360	0
-403	363	0
-364	-366	0
-403	-366	0
-366	-361	0
-382	370	0
-382	385	0
-647	378	0
-379	646	0
-769	-177	0
-776	-177	0
-770	178	0
-770	-776	0
-773	779	0
-780	772	0
-773	-776	0
-780	-776	0
-771	-179	0
-776	-179	0
749	769	0
-749	-769	0
-750	770	0
751	771	0
-751	-771	0
-753	750	0
-760	750	0
-760	756	0
-753	763	0
-861	864	0
-858	864	0
-855	864	0
-852	864	0
-844	864	0
-837	864	0
838	39	-37	0
839	-39	37	0
-837	839	838	0
-38	37	39	0
-38	-37	-39	0
-571	570	572	0
-571	-570	-572	0
-558	557	559	0
-558	-557	-559	0
-555	554	556	0
-555	-554	-556	0
-175	174	176	0
-175	-174	-176	0
-760	759	761	0
-760	-759	-761	0
-720	719	721	0
-720	-719	-721	0
-695	694	696	0
-695	-694	-696	0
-689	688	690	0
-689	-688	-690	0
-662	661	663	0
-662	-661	-663	0
-640	639	641	0
-640	-639	-641	0
-614	613	615	0
-614	-613	-615	0
-526	525	527	0
-526	-525	-527	0
-514	513	515	0
-514	-513	-515	0
-467	466	468	0
-467	-466	-468	0
-439	438	440	0
-439	-438	-440	0
-382	381	383	0
-382	-381	-383	0
-282	281	283	0
-282	-281	-283	0
-271	270	272	0
-271	-270	-272	0
-266	265	267	0
-266	-265	-267	0
-262	261	263	0
-262	-261	-263	0
-232	231	233	0
-232	-231	-233	0
-225	224	226	0
-225	-224	-226	0
-213	212	214	0
-213	-212	-214	0
-201	200	202	0
-201	-200	-202	0
-198	197	199	0
-198	-197	-199	0
-79	78	80	0
-79	-78	-80	0
825	564	-420	0
826	-564	420	0
-410	826	825	0
576	742	743	0
58	244	61	0
56	462	448	0
59	715	708	0
419	431	432	0
784	801	802	0
651	782	783	0
183	649	650	0
500	509	502	0
584	747	748	0
813	804	-805	0
814	-804	805	0
-789	814	813	0
819	654	-652	0
820	-654	652	0
-497	820	819	0
831	666	-184	0
832	-666	184	0
-182	832	831	0
823	562	-544	0
824	-562	544	0
-499	824	823	0
833	60	-180	0
834	-60	180	0
-55	834	833	0
815	701	-702	0
816	-701	702	0
-577	816	815	0
827	245	-246	0
828	-245	246	0
-243	828	827	0
821	587	-588	0
822	-587	588	0
-585	822	821	0
845	42	-40	0
846	-42	40	0
-844	846	845	0
-41	40	42	0
-41	-40	-42	0
-530	529	531	0
-530	-529	-531	0
-477	476	478	0
-477	-476	-478	0
-474	473	475	0
-474	-473	-475	0
-210	209	211	0
-210	-209	-211	0
-787	786	788	0
-787	-786	-788	0
-753	752	754	0
-753	-752	-754	0
-730	729	731	0
-730	-729	-731	0
-624	623	625	0
-624	-623	-625	0
-598	597	599	0
-598	-597	-599	0
-493	492	494	0
-493	-492	-494	0
-406	405	407	0
-406	-405	-407	0
-403	402	404	0
-403	-402	-404	0
-82	-83	98	0
-82	-81	96	0
-82	96	98	0
-82	-83	70	0
-82	-81	68	0
-82	68	70	0
-97	-98	83	0
-97	-96	81	0
-97	81	83	0
-97	-98	70	0
-97	-96	68	0
-97	68	70	0
-69	-70	83	0
-69	-68	81	0
-69	81	83	0
-69	-70	98	0
-69	-68	96	0
-69	96	98	0
-94	93	95	0
-94	-93	-95	0
-87	-84	-81	0
90	84	81	0
90	87	81	0
-88	-89	86	0
-88	-87	84	0
-88	84	86	0
-88	-89	-90	0
-88	-87	-92	0
-88	-90	-92	0
-85	-86	-90	0
-85	-84	-92	0
-85	-90	-92	0
-82	81	83	0
-82	-81	-83	0
-87	-86	-83	0
92	86	83	0
92	87	83	0
-273	-434	-90	0
-274	-275	436	0
-274	-273	434	0
-274	434	436	0
-435	-436	275	0
-435	-434	273	0
-435	273	275	0
-91	90	92	0
-91	-90	-92	0
-275	-436	-92	0
-441	-479	-452	0
-274	273	275	0
-274	-273	-275	0
276	280	281	0
-277	276	278	0
-277	-276	-278	0
278	280	283	0
-434	-437	-438	0
-435	434	436	0
-435	-434	-436	0
-436	-437	-440	0
270	269	84	0
-270	-269	84	0
-270	269	-84	0
270	-269	-84	0
-85	84	86	0
-85	-84	-86	0
272	269	86	0
-272	-269	86	0
-272	269	-86	0
272	-269	-86	0
-207	-208	-187	0
-207	-206	-189	0
-207	-187	-189	0
-207	-208	-203	0
-207	-206	-205	0
-207	-203	-205	0
-188	-189	-206	0
-188	-187	-208	0
-188	-206	-208	0
-188	-189	-203	0
-188	-187	-205	0
-188	-203	-205	0
-204	-205	-206	0
-204	-203	-208	0
-204	-206	-208	0
-204	-205	-187	0
-204	-203	-189	0
-204	-187	-189	0
-97	96	98	0
-97	-96	-98	0
-671	-656	-206	0
-671	-675	-206	0
-671	-668	-206	0
-669	-670	-656	0
-669	-668	-658	0
-669	-656	-658	0
-676	-677	-656	0
-676	-675	-658	0
-676	-656	-658	0
-669	-670	673	0
-669	-668	671	0
-669	671	673	0
-676	-677	673	0
-676	-675	671	0
-676	671	673	0
-657	-658	673	0
-657	-656	671	0
-657	671	673	0
-207	206	208	0
-207	-206	-208	0
-673	-658	-208	0
-673	-675	-208	0
-673	-668	-208	0
684	566	671	0
-697	-566	-671	0
-697	-684	-671	0
-685	-686	-566	0
-685	-684	-568	0
-685	-566	-568	0
-567	-568	-684	0
-567	-566	-686	0
-567	-684	-686	0
-672	671	673	0
-672	-671	-673	0
686	568	673	0
-697	-568	-673	0
-697	-686	-673	0
684	687	688	0
-685	684	686	0
-685	-684	-686	0
686	687	690	0
566	569	570	0
-567	566	568	0
-567	-566	-568	0
568	569	572	0
-668	-762	-767	0
817	660	-661	0
818	-660	661	0
-656	818	817	0
-657	656	658	0
-657	-656	-658	0
848	660	-663	0
849	-660	663	0
-658	849	848	0
-188	187	189	0
-188	-187	-189	0
829	392	-200	0
830	-392	200	0
-190	830	829	0
-191	190	192	0
-191	-190	-192	0
850	392	-202	0
851	-392	202	0
-192	851	850	0
-204	203	205	0
-204	-203	-205	0
-237	-227	-234	0
240	227	234	0
240	237	234	0
-238	-239	229	0
-238	-237	227	0
-238	227	229	0
-238	-239	-240	0
-238	-237	-242	0
-238	-240	-242	0
-228	-229	-240	0
-228	-227	-242	0
-228	-240	-242	0
-235	234	236	0
-235	-234	-236	0
-237	-229	-236	0
242	229	236	0
242	237	236	0
-545	-520	-240	0
-546	-547	522	0
-546	-545	520	0
-546	520	522	0
-521	-522	547	0
-521	-520	545	0
-521	545	547	0
-241	240	242	0
-241	-240	-242	0
-547	-522	-242	0
-536	-542	-543	0
-545	-553	-557	0
-546	545	547	0
-546	-545	-547	0
-547	-553	-559	0
-520	-524	-525	0
-521	520	522	0
-521	-520	-522	0
-522	-524	-527	0
231	408	227	0
-231	-408	227	0
-231	408	-227	0
231	-408	-227	0
-228	227	229	0
-228	-227	-229	0
233	408	229	0
-233	-408	229	0
-233	408	-229	0
233	-408	-229	0
-74	-71	-68	0
62	71	68	0
62	74	68	0
-75	-76	73	0
-75	-74	71	0
-75	71	73	0
-75	-76	-62	0
-75	-74	-64	0
-75	-62	-64	0
-72	-73	-62	0
-72	-71	-64	0
-72	-62	-64	0
-69	68	70	0
-69	-68	-70	0
-74	-73	-70	0
64	73	70	0
64	74	70	0
-63	62	64	0
-63	-62	-64	0
250	247	65	0
-253	-247	-65	0
-253	-250	-65	0
-251	-252	-247	0
-251	-250	-249	0
-251	-247	-249	0
-248	-249	-250	0
-248	-247	-252	0
-248	-250	-252	0
-66	65	67	0
-66	-65	-67	0
252	249	67	0
-253	-249	-67	0
-253	-252	-67	0
250	264	265	0
-251	250	252	0
-251	-250	-252	0
252	264	267	0
-248	247	249	0
-248	-247	-249	0
-256	-260	-261	0
-257	256	258	0
-257	-256	-258	0
-258	-260	-263	0
197	103	71	0
-197	-103	71	0
-197	103	-71	0
197	-103	-71	0
-72	71	73	0
-72	-71	-73	0
199	103	73	0
-199	-103	73	0
-199	103	-73	0
199	-103	-73	0
853	45	-43	0
854	-45	43	0
-852	854	853	0
-133	-134	128	0
-133	-132	126	0
-133	126	128	0
-133	-134	146	0
-133	-132	144	0
-133	144	146	0
-133	-134	298	0
-133	-132	296	0
-133	296	298	0
-127	-128	134	0
-127	-126	132	0
-127	132	134	0
-127	-128	146	0
-127	-126	144	0
-127	144	146	0
-127	-128	298	0
-127	-126	296	0
-127	296	298	0
-145	-146	134	0
-145	-144	132	0
-145	132	134	0
-145	-146	128	0
-145	-144	126	0
-145	126	128	0
-145	-146	298	0
-145	-144	296	0
-145	296	298	0
-297	-298	134	0
-297	-296	132	0
-297	132	134	0
-297	-298	128	0
-297	-296	126	0
-297	126	128	0
-297	-298	146	0
-297	-296	144	0
-297	144	146	0
-44	43	45	0
-44	-43	-45	0
-151	150	152	0
-151	-150	-152	0
-133	132	134	0
-133	-132	-134	0
-130	129	131	0
-130	-129	-131	0
-106	105	107	0
-106	-105	-107	0
-157	169	172	0
-172	171	173	0
-172	-171	-173	0
-169	168	170	0
-169	-168	-170	0
-798	-691	-156	0
-790	-694	-156	0
-791	-792	696	0
-791	-790	694	0
-791	694	696	0
-791	-792	-678	0
-791	-790	-680	0
-791	-678	-680	0
-695	-696	-678	0
-695	-694	-680	0
-695	-678	-680	0
-799	-800	-678	0
-799	-798	-680	0
-799	-678	-680	0
-692	-693	-678	0
-692	-691	-680	0
-692	-678	-680	0
-679	-798	-691	0
-791	-798	-691	0
-695	-798	-691	0
-157	156	158	0
-157	-156	-158	0
-798	-691	-158	0
-790	-696	-158	0
-679	678	680	0
-679	-678	-680	0
-808	-786	-681	0
794	786	681	0
794	808	681	0
-809	-810	788	0
-809	-808	786	0
-809	786	788	0
-682	681	683	0
-682	-681	-683	0
-808	-788	-683	0
794	788	683	0
794	808	683	0
-342	341	343	0
-342	-341	-343	0
-294	293	295	0
-294	-293	-295	0
-127	126	128	0
-127	-126	-128	0
-124	123	125	0
-124	-123	-125	0
-115	114	116	0
-115	-114	-116	0
-339	338	340	0
-339	-338	-340	0
-321	320	322	0
-321	-320	-322	0
-318	317	319	0
-318	-317	-319	0
-627	-623	-165	0
-631	-632	-620	0
-631	-630	-622	0
-631	-620	-622	0
-628	-629	625	0
-628	-627	623	0
-628	623	625	0
-628	-629	-620	0
-628	-627	-622	0
-628	-620	-622	0
-624	-625	-620	0
-624	-623	-622	0
-624	-620	-622	0
-166	165	167	0
-166	-165	-167	0
-627	-625	-167	0
-621	620	622	0
-621	-620	-622	0
-744	-636	-633	0
-643	-639	-633	0
639	636	633	0
643	636	633	0
639	744	633	0
643	744	633	0
-644	-645	641	0
-644	-643	639	0
-644	639	641	0
-644	-744	-636	0
-640	-744	-636	0
-634	633	635	0
-634	-633	-635	0
-744	-636	-635	0
-643	-641	-635	0
641	636	635	0
643	636	635	0
641	744	635	0
643	744	635	0
-121	145	148	0
-148	147	149	0
-148	-147	-149	0
-145	144	146	0
-145	-144	-146	0
-121	120	122	0
-121	-120	-122	0
314	320	323	0
-324	-325	-320	0
-324	-323	-322	0
-324	-320	-322	0
-321	-322	-323	0
-321	-320	-325	0
-321	-323	-325	0
-315	314	316	0
-315	-314	-316	0
316	322	325	0
-487	486	488	0
-487	-486	-488	0
-345	344	346	0
-345	-344	-346	0
-324	323	325	0
-324	-323	-325	0
-312	311	313	0
-312	-311	-313	0
-309	308	310	0
-309	-308	-310	0
-290	-607	-594	0
-595	-596	609	0
-595	-594	607	0
-595	607	609	0
-608	-609	596	0
-608	-607	594	0
-608	594	596	0
-291	290	292	0
-291	-290	-292	0
-292	-609	-596	0
-601	-597	-594	0
604	597	594	0
604	601	594	0
-602	-603	599	0
-602	-601	597	0
-602	597	599	0
-595	594	596	0
-595	-594	-596	0
-601	-599	-596	0
604	599	596	0
604	601	596	0
-739	-610	-607	0
-617	-613	-607	0
613	610	607	0
617	610	607	0
613	739	607	0
617	739	607	0
-618	-619	615	0
-618	-617	613	0
-618	613	615	0
-618	-739	-610	0
-614	-739	-610	0
-608	607	609	0
-608	-607	-609	0
-739	-610	-609	0
-617	-615	-609	0
615	610	609	0
617	610	609	0
615	739	609	0
617	739	609	0
-490	489	491	0
-490	-489	-491	0
-306	305	307	0
-306	-305	-307	0
-300	299	301	0
-300	-299	-301	0
-297	296	298	0
-297	-296	-298	0
-118	117	119	0
-118	-117	-119	0
-716	-712	-453	0
-723	-719	-453	0
-724	-725	721	0
-724	-723	719	0
-724	719	721	0
-724	-725	-709	0
-724	-723	-711	0
-724	-709	-711	0
-720	-721	-709	0
-720	-719	-711	0
-720	-709	-711	0
-717	-718	-709	0
-717	-716	-711	0
-717	-709	-711	0
-713	-714	-709	0
-713	-712	-711	0
-713	-709	-711	0
-710	-716	-712	0
-724	-716	-712	0
-720	-716	-712	0
-454	453	455	0
-454	-453	-455	0
-716	-712	-455	0
-723	-721	-455	0
-710	709	711	0
-710	-709	-711	0
-733	-729	-726	0
736	729	726	0
736	733	726	0
-734	-735	731	0
-734	-733	729	0
-734	729	731	0
-727	726	728	0
-727	-726	-728	0
-733	-731	-728	0
736	731	728	0
736	733	728	0
856	51	-49	0
857	-51	49	0
-855	857	856	0
-151	-152	137	0
-151	-150	135	0
-151	135	137	0
-151	-152	149	0
-151	-150	147	0
-151	147	149	0
-151	-152	143	0
-151	-150	141	0
-151	141	143	0
-136	-137	152	0
-136	-135	150	0
-136	150	152	0
-136	-137	149	0
-136	-135	147	0
-136	147	149	0
-136	-137	143	0
-136	-135	141	0
-136	141	143	0
-148	-149	152	0
-148	-147	150	0
-148	150	152	0
-148	-149	137	0
-148	-147	135	0
-148	135	137	0
-148	-149	143	0
-148	-147	141	0
-148	141	143	0
-142	-143	152	0
-142	-141	150	0
-142	150	152	0
-142	-143	137	0
-142	-141	135	0
-142	135	137	0
-142	-143	149	0
-142	-141	147	0
-142	147	149	0
-50	49	51	0
-50	-49	-51	0
-351	-352	346	0
-351	-350	344	0
-351	344	346	0
-351	-352	374	0
-351	-350	372	0
-351	372	374	0
-351	-352	343	0
-351	-350	341	0
-351	341	343	0
-345	-346	352	0
-345	-344	350	0
-345	350	352	0
-345	-346	374	0
-345	-344	372	0
-345	372	374	0
-345	-346	343	0
-345	-344	341	0
-345	341	343	0
-373	-374	352	0
-373	-372	350	0
-373	350	352	0
-373	-374	346	0
-373	-372	344	0
-373	344	346	0
-373	-374	343	0
-373	-372	341	0
-373	341	343	0
-342	-343	352	0
-342	-341	350	0
-342	350	352	0
-342	-343	346	0
-342	-341	344	0
-342	344	346	0
-342	-343	374	0
-342	-341	372	0
-342	372	374	0
-136	135	137	0
-136	-135	-137	0
-330	348	351	0
-351	350	352	0
-351	-350	-352	0
-348	347	349	0
-348	-347	-349	0
-330	329	331	0
-330	-329	-331	0
-303	354	357	0
-357	356	358	0
-357	-356	-358	0
-354	353	355	0
-354	-353	-355	0
-510	-506	-302	0
-517	-513	-302	0
-518	-519	515	0
-518	-517	513	0
-518	513	515	0
-518	-519	-503	0
-518	-517	-505	0
-518	-503	-505	0
-514	-515	-503	0
-514	-513	-505	0
-514	-503	-505	0
-511	-512	-503	0
-511	-510	-505	0
-511	-503	-505	0
-507	-508	-503	0
-507	-506	-505	0
-507	-503	-505	0
-504	-510	-506	0
-518	-510	-506	0
-514	-510	-506	0
-303	302	304	0
-303	-302	-304	0
-510	-506	-304	0
-517	-515	-304	0
539	529	503	0
-533	-529	-503	0
-533	-539	-503	0
-540	-541	-529	0
-540	-539	-531	0
-540	-529	-531	0
-504	503	505	0
-504	-503	-505	0
539	531	505	0
-533	-531	-505	0
-533	-539	-505	0
-216	373	376	0
-376	375	377	0
-376	-375	-377	0
-373	372	374	0
-373	-372	-374	0
-428	-221	-215	0
-411	-224	-215	0
-412	-413	226	0
-412	-411	224	0
-412	224	226	0
-412	-413	-218	0
-412	-411	-220	0
-412	-218	-220	0
-225	-226	-218	0
-225	-224	-220	0
-225	-218	-220	0
-429	-430	-218	0
-429	-428	-220	0
-429	-218	-220	0
-222	-223	-218	0
-222	-221	-220	0
-222	-218	-220	0
-219	-428	-221	0
-412	-428	-221	0
-225	-428	-221	0
-216	215	217	0
-216	-215	-217	0
-428	-221	-217	0
-411	-226	-217	0
-219	218	220	0
-219	-218	-220	0
-423	-405	-398	0
415	405	398	0
415	423	398	0
-424	-425	407	0
-424	-423	405	0
-424	405	407	0
-399	398	400	0
-399	-398	-400	0
-423	-407	-400	0
415	407	400	0
415	423	400	0
-109	139	142	0
-142	141	143	0
-142	-141	-143	0
-139	138	140	0
-139	-138	-140	0
-285	-286	310	0
-285	-284	308	0
-285	308	310	0
-285	-286	301	0
-285	-284	299	0
-285	299	301	0
-285	-286	295	0
-285	-284	293	0
-285	293	295	0
-309	-310	286	0
-309	-308	284	0
-309	284	286	0
-309	-310	301	0
-309	-308	299	0
-309	299	301	0
-309	-310	295	0
-309	-308	293	0
-309	293	295	0
-300	-301	286	0
-300	-299	284	0
-300	284	286	0
-300	-301	310	0
-300	-299	308	0
-300	308	310	0
-300	-301	295	0
-300	-299	293	0
-300	293	295	0
-294	-295	286	0
-294	-293	284	0
-294	284	286	0
-294	-295	310	0
-294	-293	308	0
-294	308	310	0
-294	-295	301	0
-294	-293	299	0
-294	299	301	0
-109	108	110	0
-109	-108	-110	0
-285	284	286	0
-285	-284	-286	0
-288	333	336	0
-336	335	337	0
-336	-335	-337	0
-333	332	334	0
-333	-332	-334	0
480	476	287	0
-484	-485	458	0
-484	-483	456	0
-484	456	458	0
-481	-482	-476	0
-481	-480	-478	0
-481	-476	-478	0
-481	-482	458	0
-481	-480	456	0
-481	456	458	0
-477	-478	458	0
-477	-476	456	0
-477	456	458	0
-288	287	289	0
-288	-287	-289	0
480	478	289	0
-463	-459	-456	0
-470	-466	-456	0
466	459	456	0
470	459	456	0
466	463	456	0
470	463	456	0
-471	-472	468	0
-471	-470	466	0
-471	466	468	0
-471	-463	-459	0
-467	-463	-459	0
-457	456	458	0
-457	-456	-458	0
-463	-459	-458	0
-470	-468	-458	0
468	459	458	0
470	459	458	0
468	463	458	0
470	463	458	0
859	48	-46	0
860	-48	46	0
-858	860	859	0
-124	-125	113	0
-124	-123	111	0
-124	111	113	0
-124	-125	140	0
-124	-123	138	0
-124	138	140	0
-124	-125	131	0
-124	-123	129	0
-124	129	131	0
-112	-113	125	0
-112	-111	123	0
-112	123	125	0
-112	-113	140	0
-112	-111	138	0
-112	138	140	0
-112	-113	131	0
-112	-111	129	0
-112	129	131	0
-139	-140	125	0
-139	-138	123	0
-139	123	125	0
-139	-140	113	0
-139	-138	111	0
-139	111	113	0
-139	-140	131	0
-139	-138	129	0
-139	129	131	0
-130	-131	125	0
-130	-129	123	0
-130	123	125	0
-130	-131	113	0
-130	-129	111	0
-130	111	113	0
-130	-131	140	0
-130	-129	138	0
-130	138	140	0
-47	46	48	0
-47	-46	-48	0
-312	-313	355	0
-312	-311	353	0
-312	353	355	0
-312	-313	307	0
-312	-311	305	0
-312	305	307	0
-354	-355	313	0
-354	-353	311	0
-354	311	313	0
-354	-355	307	0
-354	-353	305	0
-354	305	307	0
-306	-307	313	0
-306	-305	311	0
-306	311	313	0
-306	-307	355	0
-306	-305	353	0
-306	353	355	0
-112	111	113	0
-112	-111	-113	0
862	54	-52	0
863	-54	52	0
-861	863	862	0
52	177	153	0
-154	-155	-177	0
-154	-153	-179	0
-154	-177	-179	0
-178	-179	-153	0
-178	-177	-155	0
-178	-153	-155	0
-53	52	54	0
-53	-52	-54	0
54	179	155	0
-318	-319	-162	0
-318	-317	-164	0
-318	-162	-164	0
-318	-319	-159	0
-318	-317	-161	0
-318	-159	-161	0
-318	-319	-168	0
-318	-317	-170	0
-318	-168	-170	0
-163	-164	-317	0
-163	-162	-319	0
-163	-317	-319	0
-163	-164	-159	0
-163	-162	-161	0
-163	-159	-161	0
-163	-164	-168	0
-163	-162	-170	0
-163	-168	-170	0
-160	-161	-317	0
-160	-159	-319	0
-160	-317	-319	0
-160	-161	-162	0
-160	-159	-164	0
-160	-162	-164	0
-160	-161	-168	0
-160	-159	-170	0
-160	-168	-170	0
-169	-170	-317	0
-169	-168	-319	0
-169	-317	-319	0
-169	-170	-162	0
-169	-168	-164	0
-169	-162	-164	0
-169	-170	-159	0
-169	-168	-161	0
-169	-159	-161	0
-154	153	155	0
-154	-153	-155	0
-162	-486	-489	0
-490	-491	488	0
-490	-489	486	0
-490	486	488	0
-487	-488	491	0
-487	-486	489	0
-487	489	491	0
-163	162	164	0
-163	-162	-164	0
-164	-488	-491	0
-348	-349	328	0
-348	-347	326	0
-348	326	328	0
-348	-349	337	0
-348	-347	335	0
-348	335	337	0
-327	-328	349	0
-327	-326	347	0
-327	347	349	0
-327	-328	337	0
-327	-326	335	0
-327	335	337	0
-336	-337	349	0
-336	-335	347	0
-336	347	349	0
-336	-337	328	0
-336	-335	326	0
-336	326	328	0
-160	159	161	0
-160	-159	-161	0
-359	-369	-326	0
375	369	326	0
375	359	326	0
-360	-361	371	0
-360	-359	369	0
-360	369	371	0
-370	-371	361	0
-370	-369	359	0
-370	359	361	0
-360	-361	-375	0
-360	-359	-377	0
-360	-375	-377	0
-370	-371	-375	0
-370	-369	-377	0
-370	-375	-377	0
-327	326	328	0
-327	-326	-328	0
-361	-371	-328	0
377	371	328	0
377	361	328	0
-363	-402	-359	0
366	402	359	0
366	363	359	0
-364	-365	404	0
-364	-363	402	0
-364	402	404	0
-360	359	361	0
-360	-359	-361	0
-363	-404	-361	0
366	404	361	0
366	363	361	0
-646	-378	-369	0
-385	-381	-369	0
381	378	369	0
385	378	369	0
381	646	369	0
385	646	369	0
-386	-387	383	0
-386	-385	381	0
-386	381	383	0
-386	-646	-378	0
-382	-646	-378	0
-370	369	371	0
-370	-369	-371	0
-646	-378	-371	0
-385	-383	-371	0
383	378	371	0
385	378	371	0
383	646	371	0
385	646	371	0
-772	-779	-177	0
-777	-778	-769	0
-777	-776	-771	0
-777	-769	-771	0
-773	-774	-769	0
-773	-772	-771	0
-773	-769	-771	0
-780	-781	-769	0
-780	-779	-771	0
-780	-769	-771	0
-777	-772	-779	0
-770	-772	-779	0
-178	177	179	0
-178	-177	-179	0
-772	-779	-179	0
-770	769	771	0
-770	-769	-771	0
-752	-763	-749	0
-759	-756	-749	0
756	763	749	0
759	763	749	0
756	752	749	0
759	752	749	0
-757	-758	761	0
-757	-756	759	0
-757	759	761	0
-764	-765	754	0
-764	-763	752	0
-764	752	754	0
-750	749	751	0
-750	-749	-751	0
-754	-763	-751	0
-761	-756	-751	0
756	763	751	0
761	763	751	0
756	754	751	0
761	754	751	0
-865	844	837	0
573	659	393	409	0
-175	555	558	571	0
230	421	414	418	0
560	563	561	565	0
-561	-664	-653	-665	0
388	393	659	573	0
391	806	793	797	0
390	674	755	775	0
185	193	384	195	0
496	548	516	501	0
102	447	469	449	0
101	580	616	582	0
100	704	722	706	0
77	590	642	592	0
-210	474	477	530	0
-93	-68	-96	-81	0
-95	-70	-98	-83	0
-91	-87	-92	-84	0
-91	-87	-90	-86	0
-91	-87	-84	-86	0
441	444	434	90	0
441	444	273	90	0
-442	441	-273	-434	0
-442	443	-275	-436	0
-445	444	-273	-434	0
-445	446	-275	-436	0
441	444	436	92	0
441	444	275	92	0
87	705	732	707	0
96	203	187	206	0
98	205	189	208	0
668	675	656	206	0
668	675	658	208	0
-698	-697	684	566	0
-698	-699	686	568	0
697	807	811	812	0
-241	-237	-242	-227	0
-241	-237	-240	-229	0
-241	-237	-227	-229	0
536	549	520	240	0
536	549	545	240	0
-537	536	-545	-520	0
-537	538	-547	-522	0
-550	549	-545	-520	0
-550	551	-547	-522	0
536	549	522	242	0
536	549	547	242	0
237	422	426	427	0
-63	-74	-64	-71	0
-63	-74	-62	-73	0
-63	-74	-71	-73	0
-254	-253	250	247	0
-254	-255	252	249	0
253	579	600	581	0
74	591	626	593	0
-106	130	133	151	0
678	694	691	156	0
678	790	691	156	0
678	694	798	156	0
678	790	798	156	0
-679	-790	-680	-694	0
-679	-790	-678	-696	0
-679	-790	-694	-696	0
-799	-790	-800	-694	0
-799	-790	-798	-696	0
-799	-790	-694	-696	0
-692	-790	-693	-694	0
-692	-790	-691	-696	0
-692	-790	-694	-696	0
680	696	691	158	0
680	790	691	158	0
680	696	798	158	0
680	790	798	158	0
-795	-808	-796	-786	0
-795	-808	-794	-788	0
-795	-808	-786	-788	0
-166	318	321	339	0
620	630	623	165	0
620	630	627	165	0
-621	-627	-622	-623	0
-621	-627	-620	-625	0
-621	-627	-623	-625	0
-631	-627	-632	-623	0
-631	-627	-630	-625	0
-631	-627	-623	-625	0
622	630	625	167	0
622	630	627	167	0
-745	-643	-746	-639	0
-745	-643	-744	-641	0
-745	-643	-639	-641	0
-637	-643	-638	-639	0
-637	-643	-636	-641	0
-637	-643	-639	-641	0
-605	-601	-606	-597	0
-605	-601	-604	-599	0
-605	-601	-597	-599	0
-740	-617	-741	-613	0
-740	-617	-739	-615	0
-740	-617	-613	-615	0
-611	-617	-612	-613	0
-611	-617	-610	-615	0
-611	-617	-613	-615	0
709	719	712	453	0
709	723	712	453	0
709	719	716	453	0
709	723	716	453	0
-710	-723	-711	-719	0
-710	-723	-709	-721	0
-710	-723	-719	-721	0
-717	-723	-718	-719	0
-717	-723	-716	-721	0
-717	-723	-719	-721	0
-713	-723	-714	-719	0
-713	-723	-712	-721	0
-713	-723	-719	-721	0
711	721	712	455	0
711	723	712	455	0
711	721	716	455	0
711	723	716	455	0
-737	-733	-738	-729	0
-737	-733	-736	-731	0
-737	-733	-729	-731	0
503	513	506	302	0
503	517	506	302	0
503	513	510	302	0
503	517	510	302	0
-504	-517	-505	-513	0
-504	-517	-503	-515	0
-504	-517	-513	-515	0
-511	-517	-512	-513	0
-511	-517	-510	-515	0
-511	-517	-513	-515	0
-507	-517	-508	-513	0
-507	-517	-506	-515	0
-507	-517	-513	-515	0
505	515	506	304	0
505	517	506	304	0
505	515	510	304	0
505	517	510	304	0
-534	539	-535	531	0
-534	539	-533	529	0
-534	539	529	531	0
218	224	221	215	0
218	411	221	215	0
218	224	428	215	0
218	411	428	215	0
-219	-411	-220	-224	0
-219	-411	-218	-226	0
-219	-411	-224	-226	0
-429	-411	-430	-224	0
-429	-411	-428	-226	0
-429	-411	-224	-226	0
-222	-411	-223	-224	0
-222	-411	-221	-226	0
-222	-411	-224	-226	0
220	226	221	217	0
220	411	221	217	0
220	226	428	217	0
220	411	428	217	0
-416	-423	-417	-405	0
-416	-423	-415	-407	0
-416	-423	-405	-407	0
-456	-483	-476	-287	0
-456	-483	-480	-287	0
-457	480	-458	478	0
-457	480	-456	476	0
-457	480	476	478	0
-484	480	-485	478	0
-484	480	-483	476	0
-484	480	476	478	0
-458	-483	-478	-289	0
-458	-483	-480	-289	0
-464	-470	-465	-466	0
-464	-470	-463	-468	0
-464	-470	-466	-468	0
-460	-470	-461	-466	0
-460	-470	-459	-468	0
-460	-470	-466	-468	0
-111	-305	-353	-311	0
-113	-307	-355	-313	0
-159	-335	-326	-347	0
-161	-337	-328	-349	0
-376	375	-359	-369	0
-376	377	-361	-371	0
-367	-363	-368	-402	0
-367	-363	-366	-404	0
-367	-363	-402	-404	0
-647	-385	-648	-381	0
-647	-385	-646	-383	0
-647	-385	-381	-383	0
-379	-385	-380	-381	0
-379	-385	-378	-383	0
-379	-385	-381	-383	0
776	769	779	177	0
776	769	772	177	0
776	771	779	179	0
776	771	772	179	0
-760	-763	-761	-752	0
-760	-763	-759	-754	0
-760	-763	-752	-754	0
-757	-763	-758	-752	0
-757	-763	-756	-754	0
-757	-763	-752	-754	0
-753	-756	-754	-759	0
-753	-756	-752	-761	0
-753	-756	-759	-761	0
-764	-756	-765	-759	0
-764	-756	-763	-761	0
-764	-756	-759	-761	0
-78	-99	-552	-388	-395	0
-80	-99	-552	-388	-397	0
-57	-583	-560	-58	-575	0
99	104	268	259	279	0
-847	624	730	753	787	0
187	190	194	362	196	0
189	192	194	362	196	0
-43	-296	-144	-126	-132	0
-45	-298	-146	-128	-134	0
-115	124	127	294	342	0
-118	297	300	306	490	0
-49	-141	-147	-135	-150	0
-51	-143	-149	-137	-152	0
-135	-341	-372	-344	-350	0
-137	-343	-374	-346	-352	0
-108	-293	-299	-308	-284	0
-110	-295	-301	-310	-286	0
-46	-129	-138	-111	-123	0
-48	-131	-140	-113	-125	0
153	168	159	162	317	0
155	170	161	164	319	0
53	47	50	44	41	836	0
-79	198	201	213	225	840	0
-840	232	262	266	271	841	0
-841	282	382	439	467	842	0
-842	514	526	614	640	843	0
-843	662	689	695	720	760	0
-94	403	406	493	598	847	0
-291	309	312	324	345	487	0
-864	861	858	855	852	865	0
